0 27 13 15 29 0
0 8 19 14 35 0
0 31 10 7 0
0 53 11 38 0
0 23 41 42 22 1 0
0 33 16 51 0
0 47 36 20 37 0
0 50 18 24 3 0
0 48 5 45 0
0 17 12 26 0
0 25 9 39 0
0 28 21 30 0
0 4 2 6 0
0 44 32 40 0
0 34 52 46 0
